NAME : 60_6_02.84719.tour
COMMENT : Cost = 0_84719
COMMENT : Found by LKH [Keld Helsgaun] Thu Sep 14 11:17:28 2017
TYPE : TOUR
DIMENSION : 66
TOUR_SECTION
1
4
48
59
60
44
45
43
31
29
62
11
12
10
63
33
3
34
2
30
14
9
66
5
7
53
51
49
50
32
52
65
8
47
21
22
23
17
16
19
15
36
37
24
46
18
61
13
64
6
25
54
41
39
57
20
55
27
58
26
28
42
38
35
40
56
-1
EOF
